Minimize
 +  5 x1 +  x2 +  12 x3 +  6 x4 +  3 x5 +  17 x6 +  4 x7 +  12 x8 +  3 x9 +  8 x10 +  17 x11 +  19 x12 +  10 x13 +  18 x14 +  17 x15 +  11 x16 +  8 x17 +  18 x18 +  11 x19 +  7 x20 +  10 x21 +  12 x22 +  4 x23 +  19 x24 +  14 x25 +  10 x26 +  12 x27 +  13 x28 +  x29 +  6 x30 +  13 x31 +  14 x32 +  11 x33 +  18 x34 +  14 x35 +  9 x36 +  x37 +  7 x38 +  4 x39 +  8 x40 +  9 x41 +  13 x42 +  2 x43 +  3 x44 +  3 x45 +  15 x46 +  2 x47 +  14 x48 +  15 x49 +  13 x50 +  19 x51 +  13 x52 +  5 x53 +  5 x54 +  4 x55 +  19 x56 +  17 x57 +  14 x58 +  6 x59 +  4 x60 +  13 x61 +  x62 +  14 x63 +  6 x64 +  5 x65 +  14 x66 +  8 x67 +  17 x68 +  6 x69 +  12 x70 +  18 x71 +  11 x72 +  2 x73 +  11 x74 +  3 x75 +  10 x76 +  2 x77 +  16 x78 +  19 x79 +  8 x80 +  13 x81 +  3 x82 +  12 x83 +  17 x84 +  14 x85 +  8 x86 +  18 x87 +  17 x88 +  18 x89 +  10 x90 +  8 x91 +  18 x92 +  3 x93 +  11 x94 +  18 x95 +  5 x96 +  13 x97 +  9 x98 +  7 x99 +  18 x100 +  17 x101 +  2 x102 +  16 x103 +  6 x104 +  x105 +  16 x106 +  3 x107 +  x108 +  14 x109 +  11 x110 +  17 x111 +  4 x112 +  x113 +  9 x114 +  14 x115 +  9 x116 +  8 x117 +  9 x118 +  16 x119 +  x120 +  x121 +  6 x122 +  6 x123 +  8 x124 +  5 x125 +  4 x126 +  9 x127 +  8 x128 +  x129 +  11 x130 +  3 x131 +  6 x132 +  x133 +  18 x134 +  13 x135 +  11 x136 +  16 x137 +  16 x138 +  5 x139 +  12 x140 +  3 x141 +  x142 +  8 x143 +  3 x144 +  18 x145 +  14 x146 +  15 x147 +  12 x148 +  9 x149 +  6 x150 +  14 x151 +  13 x152 +  6 x153 +  7 x154 +  17 x155 +  7 x156 +  11 x157 +  5 x158 +  11 x159 +  6 x160 +  6 x161 +  19 x162 +  4 x163 +  8 x164 +  18 x165 +  7 x166 +  2 x167 +  13 x168 +  3 x169 +  5 x170 +  12 x171 +  15 x172 +  15 x173 +  17 x174 +  7 x175 +  14 x176 +  4 x177 +  x178 +  9 x179 +  19 x180 +  14 x181 +  15 x182 +  9 x183 +  11 x184 +  4 x185 +  4 x186 +  3 x187 +  10 x188 +  8 x189 +  4 x190 +  10 x191 +  3 x192 +  16 x193 +  9 x194 +  8 x195 +  2 x196 +  11 x197 +  15 x198 +  16 x199 +  16 x200 +  6 x201 +  10 x202 +  5 x203 +  2 x204 +  15 x205 +  7 x206 +  2 x207 +  x208 +  10 x209 +  9 x210 +  8 x211 +  5 x212 +  16 x213 +  14 x214 +  9 x215 +  5 x216 +  16 x217 +  3 x218 +  17 x219 +  7 x220 +  6 x221 +  12 x222 +  13 x223 +  3 x224 +  18 x225 +  14 x226 +  12 x227 +  18 x228 +  11 x229 +  4 x230 +  15 x231 +  11 x232 +  x233 +  11 x234 +  11 x235 +  12 x236 +  5 x237 +  6 x238 +  18 x239 +  12 x240 +  15 x241 +  15 x242 +  4 x243 +  11 x244 +  16 x245 +  6 x246 +  13 x247 +  2 x248 +  7 x249 +  6 x250 +  16 x251 +  12 x252 +  15 x253 +  15 x254 +  3 x255 +  5 x256 +  11 x257 +  17 x258 +  4 x259 +  8 x260 +  12 x261 +  13 x262 +  3 x263 +  3 x264 +  5 x265 +  11 x266 +  10 x267 +  x268 +  11 x269 +  11 x270 +  5 x271 +  6 x272 +  13 x273 +  9 x274 +  5 x275 +  9 x276 +  10 x277 +  2 x278 +  11 x279 +  5 x280 +  13 x281 +  11 x282 +  17 x283 +  x284 +  13 x285 +  17 x286 +  14 x287 +  7 x288 +  8 x289 +  9 x290 +  x291 +  7 x292 +  x293 +  4 x294 +  13 x295 +  3 x296 +  18 x297 +  19 x298 +  11 x299 +  9 x300 +  3 x301 +  6 x302 +  16 x303 +  4 x304 +  10 x305 +  17 x306 +  13 x307 +  x308 +  14 x309 +  17 x310 +  4 x311 +  16 x312 +  11 x313 +  19 x314 +  11 x315 +  18 x316 +  x317 +  19 x318 +  13 x319 +  10 x320 +  15 x321 +  18 x322 +  8 x323 +  16 x324 +  16 x325 +  14 x326 +  14 x327 +  13 x328 +  10 x329 +  16 x330 +  15 x331 +  6 x332 +  2 x333 +  10 x334 +  8 x335 +  8 x336 +  9 x337 +  3 x338 +  17 x339 +  8 x340 +  12 x341 +  12 x342 +  7 x343 +  6 x344 +  x345 +  15 x346 +  x347 +  9 x348 +  11 x349 +  13 x350 +  2 x351 +  4 x352 +  5 x353 +  10 x354 +  10 x355 +  7 x356 +  5 x357 +  16 x358 +  18 x359 +  6 x360 +  12 x361 +  12 x362 +  6 x363 +  6 x364 +  18 x365 +  6 x366 +  2 x367 +  16 x368 +  9 x369 +  18 x370 +  6 x371 +  2 x372 +  13 x373 +  3 x374 +  17 x375 +  5 x376 +  5 x377 +  7 x378 +  2 x379 +  18 x380 +  19 x381 +  13 x382 +  13 x383 +  16 x384 +  11 x385 +  12 x386 +  7 x387 +  2 x388 +  18 x389 +  10 x390 +  13 x391 +  3 x392 +  11 x393 +  7 x394 +  13 x395 +  17 x396 +  13 x397 +  18 x398 +  3 x399 +  5 x400
Subject To
 +  x1 +  x21 +  x41 +  x61 +  x81 +  x101 +  x121 +  x141 +  x161 +  x181 +  x201 +  x221 +  x241 +  x261 +  x281 +  x301 +  x321 +  x341 +  x361 +  x381 = 1
 +  x2 +  x22 +  x42 +  x62 +  x82 +  x102 +  x122 +  x142 +  x162 +  x182 +  x202 +  x222 +  x242 +  x262 +  x282 +  x302 +  x322 +  x342 +  x362 +  x382 = 1
 +  x3 +  x23 +  x43 +  x63 +  x83 +  x103 +  x123 +  x143 +  x163 +  x183 +  x203 +  x223 +  x243 +  x263 +  x283 +  x303 +  x323 +  x343 +  x363 +  x383 = 1
 +  x4 +  x24 +  x44 +  x64 +  x84 +  x104 +  x124 +  x144 +  x164 +  x184 +  x204 +  x224 +  x244 +  x264 +  x284 +  x304 +  x324 +  x344 +  x364 +  x384 = 1
 +  x5 +  x25 +  x45 +  x65 +  x85 +  x105 +  x125 +  x145 +  x165 +  x185 +  x205 +  x225 +  x245 +  x265 +  x285 +  x305 +  x325 +  x345 +  x365 +  x385 = 1
 +  x6 +  x26 +  x46 +  x66 +  x86 +  x106 +  x126 +  x146 +  x166 +  x186 +  x206 +  x226 +  x246 +  x266 +  x286 +  x306 +  x326 +  x346 +  x366 +  x386 = 1
 +  x7 +  x27 +  x47 +  x67 +  x87 +  x107 +  x127 +  x147 +  x167 +  x187 +  x207 +  x227 +  x247 +  x267 +  x287 +  x307 +  x327 +  x347 +  x367 +  x387 = 1
 +  x8 +  x28 +  x48 +  x68 +  x88 +  x108 +  x128 +  x148 +  x168 +  x188 +  x208 +  x228 +  x248 +  x268 +  x288 +  x308 +  x328 +  x348 +  x368 +  x388 = 1
 +  x9 +  x29 +  x49 +  x69 +  x89 +  x109 +  x129 +  x149 +  x169 +  x189 +  x209 +  x229 +  x249 +  x269 +  x289 +  x309 +  x329 +  x349 +  x369 +  x389 = 1
 +  x10 +  x30 +  x50 +  x70 +  x90 +  x110 +  x130 +  x150 +  x170 +  x190 +  x210 +  x230 +  x250 +  x270 +  x290 +  x310 +  x330 +  x350 +  x370 +  x390 = 1
 +  x11 +  x31 +  x51 +  x71 +  x91 +  x111 +  x131 +  x151 +  x171 +  x191 +  x211 +  x231 +  x251 +  x271 +  x291 +  x311 +  x331 +  x351 +  x371 +  x391 = 1
 +  x12 +  x32 +  x52 +  x72 +  x92 +  x112 +  x132 +  x152 +  x172 +  x192 +  x212 +  x232 +  x252 +  x272 +  x292 +  x312 +  x332 +  x352 +  x372 +  x392 = 1
 +  x13 +  x33 +  x53 +  x73 +  x93 +  x113 +  x133 +  x153 +  x173 +  x193 +  x213 +  x233 +  x253 +  x273 +  x293 +  x313 +  x333 +  x353 +  x373 +  x393 = 1
 +  x14 +  x34 +  x54 +  x74 +  x94 +  x114 +  x134 +  x154 +  x174 +  x194 +  x214 +  x234 +  x254 +  x274 +  x294 +  x314 +  x334 +  x354 +  x374 +  x394 = 1
 +  x15 +  x35 +  x55 +  x75 +  x95 +  x115 +  x135 +  x155 +  x175 +  x195 +  x215 +  x235 +  x255 +  x275 +  x295 +  x315 +  x335 +  x355 +  x375 +  x395 = 1
 +  x16 +  x36 +  x56 +  x76 +  x96 +  x116 +  x136 +  x156 +  x176 +  x196 +  x216 +  x236 +  x256 +  x276 +  x296 +  x316 +  x336 +  x356 +  x376 +  x396 = 1
 +  x17 +  x37 +  x57 +  x77 +  x97 +  x117 +  x137 +  x157 +  x177 +  x197 +  x217 +  x237 +  x257 +  x277 +  x297 +  x317 +  x337 +  x357 +  x377 +  x397 = 1
 +  x18 +  x38 +  x58 +  x78 +  x98 +  x118 +  x138 +  x158 +  x178 +  x198 +  x218 +  x238 +  x258 +  x278 +  x298 +  x318 +  x338 +  x358 +  x378 +  x398 = 1
 +  x19 +  x39 +  x59 +  x79 +  x99 +  x119 +  x139 +  x159 +  x179 +  x199 +  x219 +  x239 +  x259 +  x279 +  x299 +  x319 +  x339 +  x359 +  x379 +  x399 = 1
 +  x20 +  x40 +  x60 +  x80 +  x100 +  x120 +  x140 +  x160 +  x180 +  x200 +  x220 +  x240 +  x260 +  x280 +  x300 +  x320 +  x340 +  x360 +  x380 +  x400 = 1
 +  x1 +  x2 +  x3 +  x4 +  x5 +  x6 +  x7 +  x8 +  x9 +  x10 +  x11 +  x12 +  x13 +  x14 +  x15 +  x16 +  x17 +  x18 +  x19 +  x20 = 1
 +  x21 +  x22 +  x23 +  x24 +  x25 +  x26 +  x27 +  x28 +  x29 +  x30 +  x31 +  x32 +  x33 +  x34 +  x35 +  x36 +  x37 +  x38 +  x39 +  x40 = 1
 +  x41 +  x42 +  x43 +  x44 +  x45 +  x46 +  x47 +  x48 +  x49 +  x50 +  x51 +  x52 +  x53 +  x54 +  x55 +  x56 +  x57 +  x58 +  x59 +  x60 = 1
 +  x61 +  x62 +  x63 +  x64 +  x65 +  x66 +  x67 +  x68 +  x69 +  x70 +  x71 +  x72 +  x73 +  x74 +  x75 +  x76 +  x77 +  x78 +  x79 +  x80 = 1
 +  x81 +  x82 +  x83 +  x84 +  x85 +  x86 +  x87 +  x88 +  x89 +  x90 +  x91 +  x92 +  x93 +  x94 +  x95 +  x96 +  x97 +  x98 +  x99 +  x100 = 1
 +  x101 +  x102 +  x103 +  x104 +  x105 +  x106 +  x107 +  x108 +  x109 +  x110 +  x111 +  x112 +  x113 +  x114 +  x115 +  x116 +  x117 +  x118 +  x119 +  x120 = 1
 +  x121 +  x122 +  x123 +  x124 +  x125 +  x126 +  x127 +  x128 +  x129 +  x130 +  x131 +  x132 +  x133 +  x134 +  x135 +  x136 +  x137 +  x138 +  x139 +  x140 = 1
 +  x141 +  x142 +  x143 +  x144 +  x145 +  x146 +  x147 +  x148 +  x149 +  x150 +  x151 +  x152 +  x153 +  x154 +  x155 +  x156 +  x157 +  x158 +  x159 +  x160 = 1
 +  x161 +  x162 +  x163 +  x164 +  x165 +  x166 +  x167 +  x168 +  x169 +  x170 +  x171 +  x172 +  x173 +  x174 +  x175 +  x176 +  x177 +  x178 +  x179 +  x180 = 1
 +  x181 +  x182 +  x183 +  x184 +  x185 +  x186 +  x187 +  x188 +  x189 +  x190 +  x191 +  x192 +  x193 +  x194 +  x195 +  x196 +  x197 +  x198 +  x199 +  x200 = 1
 +  x201 +  x202 +  x203 +  x204 +  x205 +  x206 +  x207 +  x208 +  x209 +  x210 +  x211 +  x212 +  x213 +  x214 +  x215 +  x216 +  x217 +  x218 +  x219 +  x220 = 1
 +  x221 +  x222 +  x223 +  x224 +  x225 +  x226 +  x227 +  x228 +  x229 +  x230 +  x231 +  x232 +  x233 +  x234 +  x235 +  x236 +  x237 +  x238 +  x239 +  x240 = 1
 +  x241 +  x242 +  x243 +  x244 +  x245 +  x246 +  x247 +  x248 +  x249 +  x250 +  x251 +  x252 +  x253 +  x254 +  x255 +  x256 +  x257 +  x258 +  x259 +  x260 = 1
 +  x261 +  x262 +  x263 +  x264 +  x265 +  x266 +  x267 +  x268 +  x269 +  x270 +  x271 +  x272 +  x273 +  x274 +  x275 +  x276 +  x277 +  x278 +  x279 +  x280 = 1
 +  x281 +  x282 +  x283 +  x284 +  x285 +  x286 +  x287 +  x288 +  x289 +  x290 +  x291 +  x292 +  x293 +  x294 +  x295 +  x296 +  x297 +  x298 +  x299 +  x300 = 1
 +  x301 +  x302 +  x303 +  x304 +  x305 +  x306 +  x307 +  x308 +  x309 +  x310 +  x311 +  x312 +  x313 +  x314 +  x315 +  x316 +  x317 +  x318 +  x319 +  x320 = 1
 +  x321 +  x322 +  x323 +  x324 +  x325 +  x326 +  x327 +  x328 +  x329 +  x330 +  x331 +  x332 +  x333 +  x334 +  x335 +  x336 +  x337 +  x338 +  x339 +  x340 = 1
 +  x341 +  x342 +  x343 +  x344 +  x345 +  x346 +  x347 +  x348 +  x349 +  x350 +  x351 +  x352 +  x353 +  x354 +  x355 +  x356 +  x357 +  x358 +  x359 +  x360 = 1
 +  x361 +  x362 +  x363 +  x364 +  x365 +  x366 +  x367 +  x368 +  x369 +  x370 +  x371 +  x372 +  x373 +  x374 +  x375 +  x376 +  x377 +  x378 +  x379 +  x380 = 1
 +  x381 +  x382 +  x383 +  x384 +  x385 +  x386 +  x387 +  x388 +  x389 +  x390 +  x391 +  x392 +  x393 +  x394 +  x395 +  x396 +  x397 +  x398 +  x399 +  x400 = 1
 -1 x2 -1 x21 >= -1
 -1 x3 -1 x22 -1 x41 >= -1
 -1 x4 -1 x23 -1 x42 -1 x61 >= -1
 -1 x5 -1 x24 -1 x43 -1 x62 -1 x81 >= -1
 -1 x6 -1 x25 -1 x44 -1 x63 -1 x82 -1 x101 >= -1
 -1 x7 -1 x26 -1 x45 -1 x64 -1 x83 -1 x102 -1 x121 >= -1
 -1 x8 -1 x27 -1 x46 -1 x65 -1 x84 -1 x103 -1 x122 -1 x141 >= -1
 -1 x9 -1 x28 -1 x47 -1 x66 -1 x85 -1 x104 -1 x123 -1 x142 -1 x161 >= -1
 -1 x10 -1 x29 -1 x48 -1 x67 -1 x86 -1 x105 -1 x124 -1 x143 -1 x162 -1 x181 >= -1
 -1 x11 -1 x30 -1 x49 -1 x68 -1 x87 -1 x106 -1 x125 -1 x144 -1 x163 -1 x182 -1 x201 >= -1
 -1 x12 -1 x31 -1 x50 -1 x69 -1 x88 -1 x107 -1 x126 -1 x145 -1 x164 -1 x183 -1 x202 -1 x221 >= -1
 -1 x13 -1 x32 -1 x51 -1 x70 -1 x89 -1 x108 -1 x127 -1 x146 -1 x165 -1 x184 -1 x203 -1 x222 -1 x241 >= -1
 -1 x14 -1 x33 -1 x52 -1 x71 -1 x90 -1 x109 -1 x128 -1 x147 -1 x166 -1 x185 -1 x204 -1 x223 -1 x242 -1 x261 >= -1
 -1 x15 -1 x34 -1 x53 -1 x72 -1 x91 -1 x110 -1 x129 -1 x148 -1 x167 -1 x186 -1 x205 -1 x224 -1 x243 -1 x262 -1 x281 >= -1
 -1 x16 -1 x35 -1 x54 -1 x73 -1 x92 -1 x111 -1 x130 -1 x149 -1 x168 -1 x187 -1 x206 -1 x225 -1 x244 -1 x263 -1 x282 -1 x301 >= -1
 -1 x17 -1 x36 -1 x55 -1 x74 -1 x93 -1 x112 -1 x131 -1 x150 -1 x169 -1 x188 -1 x207 -1 x226 -1 x245 -1 x264 -1 x283 -1 x302 -1 x321 >= -1
 -1 x18 -1 x37 -1 x56 -1 x75 -1 x94 -1 x113 -1 x132 -1 x151 -1 x170 -1 x189 -1 x208 -1 x227 -1 x246 -1 x265 -1 x284 -1 x303 -1 x322 -1 x341 >= -1
 -1 x19 -1 x38 -1 x57 -1 x76 -1 x95 -1 x114 -1 x133 -1 x152 -1 x171 -1 x190 -1 x209 -1 x228 -1 x247 -1 x266 -1 x285 -1 x304 -1 x323 -1 x342 -1 x361 >= -1
 -1 x20 -1 x39 -1 x58 -1 x77 -1 x96 -1 x115 -1 x134 -1 x153 -1 x172 -1 x191 -1 x210 -1 x229 -1 x248 -1 x267 -1 x286 -1 x305 -1 x324 -1 x343 -1 x362 -1 x381 >= -1
 -1 x40 -1 x59 -1 x78 -1 x97 -1 x116 -1 x135 -1 x154 -1 x173 -1 x192 -1 x211 -1 x230 -1 x249 -1 x268 -1 x287 -1 x306 -1 x325 -1 x344 -1 x363 -1 x382 >= -1
 -1 x60 -1 x79 -1 x98 -1 x117 -1 x136 -1 x155 -1 x174 -1 x193 -1 x212 -1 x231 -1 x250 -1 x269 -1 x288 -1 x307 -1 x326 -1 x345 -1 x364 -1 x383 >= -1
 -1 x80 -1 x99 -1 x118 -1 x137 -1 x156 -1 x175 -1 x194 -1 x213 -1 x232 -1 x251 -1 x270 -1 x289 -1 x308 -1 x327 -1 x346 -1 x365 -1 x384 >= -1
 -1 x100 -1 x119 -1 x138 -1 x157 -1 x176 -1 x195 -1 x214 -1 x233 -1 x252 -1 x271 -1 x290 -1 x309 -1 x328 -1 x347 -1 x366 -1 x385 >= -1
 -1 x120 -1 x139 -1 x158 -1 x177 -1 x196 -1 x215 -1 x234 -1 x253 -1 x272 -1 x291 -1 x310 -1 x329 -1 x348 -1 x367 -1 x386 >= -1
 -1 x140 -1 x159 -1 x178 -1 x197 -1 x216 -1 x235 -1 x254 -1 x273 -1 x292 -1 x311 -1 x330 -1 x349 -1 x368 -1 x387 >= -1
 -1 x160 -1 x179 -1 x198 -1 x217 -1 x236 -1 x255 -1 x274 -1 x293 -1 x312 -1 x331 -1 x350 -1 x369 -1 x388 >= -1
 -1 x180 -1 x199 -1 x218 -1 x237 -1 x256 -1 x275 -1 x294 -1 x313 -1 x332 -1 x351 -1 x370 -1 x389 >= -1
 -1 x200 -1 x219 -1 x238 -1 x257 -1 x276 -1 x295 -1 x314 -1 x333 -1 x352 -1 x371 -1 x390 >= -1
 -1 x220 -1 x239 -1 x258 -1 x277 -1 x296 -1 x315 -1 x334 -1 x353 -1 x372 -1 x391 >= -1
 -1 x240 -1 x259 -1 x278 -1 x297 -1 x316 -1 x335 -1 x354 -1 x373 -1 x392 >= -1
 -1 x260 -1 x279 -1 x298 -1 x317 -1 x336 -1 x355 -1 x374 -1 x393 >= -1
 -1 x280 -1 x299 -1 x318 -1 x337 -1 x356 -1 x375 -1 x394 >= -1
 -1 x300 -1 x319 -1 x338 -1 x357 -1 x376 -1 x395 >= -1
 -1 x320 -1 x339 -1 x358 -1 x377 -1 x396 >= -1
 -1 x340 -1 x359 -1 x378 -1 x397 >= -1
 -1 x360 -1 x379 -1 x398 >= -1
 -1 x380 -1 x399 >= -1
 -1 x19 -1 x40 >= -1
 -1 x18 -1 x39 -1 x60 >= -1
 -1 x17 -1 x38 -1 x59 -1 x80 >= -1
 -1 x16 -1 x37 -1 x58 -1 x79 -1 x100 >= -1
 -1 x15 -1 x36 -1 x57 -1 x78 -1 x99 -1 x120 >= -1
 -1 x14 -1 x35 -1 x56 -1 x77 -1 x98 -1 x119 -1 x140 >= -1
 -1 x13 -1 x34 -1 x55 -1 x76 -1 x97 -1 x118 -1 x139 -1 x160 >= -1
 -1 x12 -1 x33 -1 x54 -1 x75 -1 x96 -1 x117 -1 x138 -1 x159 -1 x180 >= -1
 -1 x11 -1 x32 -1 x53 -1 x74 -1 x95 -1 x116 -1 x137 -1 x158 -1 x179 -1 x200 >= -1
 -1 x10 -1 x31 -1 x52 -1 x73 -1 x94 -1 x115 -1 x136 -1 x157 -1 x178 -1 x199 -1 x220 >= -1
 -1 x9 -1 x30 -1 x51 -1 x72 -1 x93 -1 x114 -1 x135 -1 x156 -1 x177 -1 x198 -1 x219 -1 x240 >= -1
 -1 x8 -1 x29 -1 x50 -1 x71 -1 x92 -1 x113 -1 x134 -1 x155 -1 x176 -1 x197 -1 x218 -1 x239 -1 x260 >= -1
 -1 x7 -1 x28 -1 x49 -1 x70 -1 x91 -1 x112 -1 x133 -1 x154 -1 x175 -1 x196 -1 x217 -1 x238 -1 x259 -1 x280 >= -1
 -1 x6 -1 x27 -1 x48 -1 x69 -1 x90 -1 x111 -1 x132 -1 x153 -1 x174 -1 x195 -1 x216 -1 x237 -1 x258 -1 x279 -1 x300 >= -1
 -1 x5 -1 x26 -1 x47 -1 x68 -1 x89 -1 x110 -1 x131 -1 x152 -1 x173 -1 x194 -1 x215 -1 x236 -1 x257 -1 x278 -1 x299 -1 x320 >= -1
 -1 x4 -1 x25 -1 x46 -1 x67 -1 x88 -1 x109 -1 x130 -1 x151 -1 x172 -1 x193 -1 x214 -1 x235 -1 x256 -1 x277 -1 x298 -1 x319 -1 x340 >= -1
 -1 x3 -1 x24 -1 x45 -1 x66 -1 x87 -1 x108 -1 x129 -1 x150 -1 x171 -1 x192 -1 x213 -1 x234 -1 x255 -1 x276 -1 x297 -1 x318 -1 x339 -1 x360 >= -1
 -1 x2 -1 x23 -1 x44 -1 x65 -1 x86 -1 x107 -1 x128 -1 x149 -1 x170 -1 x191 -1 x212 -1 x233 -1 x254 -1 x275 -1 x296 -1 x317 -1 x338 -1 x359 -1 x380 >= -1
 -1 x1 -1 x22 -1 x43 -1 x64 -1 x85 -1 x106 -1 x127 -1 x148 -1 x169 -1 x190 -1 x211 -1 x232 -1 x253 -1 x274 -1 x295 -1 x316 -1 x337 -1 x358 -1 x379 -1 x400 >= -1
 -1 x21 -1 x42 -1 x63 -1 x84 -1 x105 -1 x126 -1 x147 -1 x168 -1 x189 -1 x210 -1 x231 -1 x252 -1 x273 -1 x294 -1 x315 -1 x336 -1 x357 -1 x378 -1 x399 >= -1
 -1 x41 -1 x62 -1 x83 -1 x104 -1 x125 -1 x146 -1 x167 -1 x188 -1 x209 -1 x230 -1 x251 -1 x272 -1 x293 -1 x314 -1 x335 -1 x356 -1 x377 -1 x398 >= -1
 -1 x61 -1 x82 -1 x103 -1 x124 -1 x145 -1 x166 -1 x187 -1 x208 -1 x229 -1 x250 -1 x271 -1 x292 -1 x313 -1 x334 -1 x355 -1 x376 -1 x397 >= -1
 -1 x81 -1 x102 -1 x123 -1 x144 -1 x165 -1 x186 -1 x207 -1 x228 -1 x249 -1 x270 -1 x291 -1 x312 -1 x333 -1 x354 -1 x375 -1 x396 >= -1
 -1 x101 -1 x122 -1 x143 -1 x164 -1 x185 -1 x206 -1 x227 -1 x248 -1 x269 -1 x290 -1 x311 -1 x332 -1 x353 -1 x374 -1 x395 >= -1
 -1 x121 -1 x142 -1 x163 -1 x184 -1 x205 -1 x226 -1 x247 -1 x268 -1 x289 -1 x310 -1 x331 -1 x352 -1 x373 -1 x394 >= -1
 -1 x141 -1 x162 -1 x183 -1 x204 -1 x225 -1 x246 -1 x267 -1 x288 -1 x309 -1 x330 -1 x351 -1 x372 -1 x393 >= -1
 -1 x161 -1 x182 -1 x203 -1 x224 -1 x245 -1 x266 -1 x287 -1 x308 -1 x329 -1 x350 -1 x371 -1 x392 >= -1
 -1 x181 -1 x202 -1 x223 -1 x244 -1 x265 -1 x286 -1 x307 -1 x328 -1 x349 -1 x370 -1 x391 >= -1
 -1 x201 -1 x222 -1 x243 -1 x264 -1 x285 -1 x306 -1 x327 -1 x348 -1 x369 -1 x390 >= -1
 -1 x221 -1 x242 -1 x263 -1 x284 -1 x305 -1 x326 -1 x347 -1 x368 -1 x389 >= -1
 -1 x241 -1 x262 -1 x283 -1 x304 -1 x325 -1 x346 -1 x367 -1 x388 >= -1
 -1 x261 -1 x282 -1 x303 -1 x324 -1 x345 -1 x366 -1 x387 >= -1
 -1 x281 -1 x302 -1 x323 -1 x344 -1 x365 -1 x386 >= -1
 -1 x301 -1 x322 -1 x343 -1 x364 -1 x385 >= -1
 -1 x321 -1 x342 -1 x363 -1 x384 >= -1
 -1 x341 -1 x362 -1 x383 >= -1
 -1 x361 -1 x382 >= -1
Binary
x3 x164 x344 x245 x146 x201 x102 x322 x69 x289 x230 x111 x331 x366 x227 x388 x155 x375 x256 x137 x317 x212 x94 x274 x300 x58 x199 x120 x103 x323 x244 x165 x345 x121 x301 x2 x68 x288 x389 x110 x330 x226 x147 x367 x374 x95 x275 x136 x316 x231 x213 x154 x200 x257 x198 x59 x203 x144 x364 x225 x166 x1 x122 x302 x89 x269 x210 x232 x113 x346 x247 x188 x315 x96 x276 x157 x377 x333 x254 x135 x359 x100 x320 x78 x298 x179 x123 x303 x224 x145 x365 x101 x321 x202 x88 x268 x189 x211 x112 x246 x167 x347 x314 x255 x156 x376 x97 x332 x233 x134 x79 x299 x277 x178 x358 x65 x285 x186 x87 x267 x21 x43 x384 x10 x32 x393 x54 x195 x168 x348 x249 x357 x98 x278 x159 x379 x76 x296 x177 x385 x86 x266 x187 x248 x42 x64 x284 x392 x33 x194 x55 x176 x169 x349 x11 x158 x378 x99 x279 x20 x356 x77 x297 x85 x265 x386 x67 x287 x41 x23 x184 x30 x391 x12 x74 x294 x148 x368 x229 x197 x258 x139 x319 x175 x355 x56 x185 x66 x286 x387 x228 x22 x84 x264 x31 x13 x174 x354 x75 x149 x369 x390 x138 x318 x259 x40 x295 x196 x57 x83 x263 x25 x47 x128 x61 x281 x182 x191 x72 x292 x173 x353 x308 x209 x50 x238 x119 x339 x380 x14 x36 x397 x183 x24 x46 x208 x129 x381 x82 x262 x172 x352 x73 x293 x15 x309 x190 x51 x338 x239 x60 x280 x396 x37 x118 x63 x283 x45 x27 x108 x81 x261 x382 x290 x171 x351 x52 x193 x328 x9 x70 x218 x180 x34 x395 x16 x383 x44 x26 x8 x109 x181 x62 x282 x71 x291 x192 x53 x394 x329 x170 x350 x80 x260 x35 x17 x219 x223 x124 x304 x205 x106 x241 x142 x362 x90 x270 x151 x371 x252 x326 x7 x29 x115 x335 x216 x18 x160 x133 x313 x234 x340 x143 x363 x204 x125 x305 x161 x341 x222 x28 x150 x370 x91 x271 x6 x107 x327 x114 x334 x235 x217 x19 x132 x312 x253 x240 x243 x104 x324 x5 x126 x221 x162 x342 x250 x131 x311 x92 x272 x306 x207 x49 x236 x117 x337 x38 x399 x153 x373 x214 x140 x360 x163 x343 x4 x105 x325 x141 x361 x242 x48 x130 x310 x251 x152 x206 x127 x307 x215 x116 x336 x237 x398 x372 x93 x273 x39 x220 x400 
